% Data file generated from RandomInstances/20_0.85_1.col DIMACS file
size = 20;

chi = 10;

adjacency = [|0,1,1,1,1,1,1,1,1,1,0,1,1,1,1,0,1,1,0,1,
|1,0,0,1,1,1,1,0,1,1,0,1,0,1,0,1,1,1,1,1,
|1,0,0,1,1,1,1,1,0,1,1,1,1,1,1,1,1,1,1,1,
|1,1,1,0,0,1,1,1,1,1,1,1,1,0,1,1,1,1,1,1,
|1,1,1,0,0,0,0,1,1,1,1,1,1,0,1,1,1,1,1,0,
|1,1,1,1,0,0,0,1,1,0,0,1,1,1,1,1,0,1,1,1,
|1,1,1,1,0,0,0,1,0,1,1,1,0,1,1,1,1,1,1,1,
|1,0,1,1,1,1,1,0,0,1,1,0,1,1,1,1,1,1,1,1,
|1,1,0,1,1,1,0,0,0,1,1,1,1,1,1,0,1,1,1,1,
|1,1,1,1,1,0,1,1,1,0,1,0,1,1,0,1,1,1,1,1,
|0,0,1,1,1,0,1,1,1,1,0,0,1,1,1,1,1,1,1,0,
|1,1,1,1,1,1,1,0,1,0,0,0,1,1,0,1,1,0,1,1,
|1,0,1,1,1,1,0,1,1,1,1,1,0,1,1,1,1,0,1,1,
|1,1,1,0,0,1,1,1,1,1,1,1,1,0,1,1,1,1,1,1,
|1,0,1,1,1,1,1,1,1,0,1,0,1,1,0,1,0,1,1,0,
|0,1,1,1,1,1,1,1,0,1,1,1,1,1,1,0,1,1,1,1,
|1,1,1,1,1,0,1,1,1,1,1,1,1,1,0,1,0,1,1,1,
|1,1,1,1,1,1,1,1,1,1,1,0,0,1,1,1,1,0,1,0,
|0,1,1,1,1,1,1,1,1,1,1,1,1,1,1,1,1,1,0,1,
|1,1,1,1,0,1,1,1,1,1,0,1,1,1,0,1,1,0,1,0,
|];